
List of user-set options:

                                    Name   Value                used
                           compl_inf_tol = 1                     yes
                         constr_viol_tol = 1                     yes
                            dual_inf_tol = 1000                  yes
                           linear_solver = ma97                  yes
                              ma86_small = 1e-30                  no
                                  ma86_u = 0.0001                 no
                              ma97_order = best                  yes
                              ma97_small = 1e-30                 yes
                            ma97_switch1 = at_start              yes
                            ma97_switch2 = od_hd_reuse           yes
                                  ma97_u = 1e-06                 yes
                               ma97_umax = 0.5                   yes
                                max_iter = 1000                  yes
                    max_refinement_steps = 20                    yes
                    min_refinement_steps = 5                     yes
                                 mu_init = 1e-06                 yes
           mu_superlinear_decrease_power = 1.25                  yes
                   nlp_scaling_min_value = 1e-08                 yes
                        option_file_name = Preset_Case:_25_pf.opt  yes
                             output_file = ./tmp/Preset_Case:_25_pf.output  yes
                      print_user_options = yes                   yes
        required_infeasibility_reduction = 1                      no
                                     tol = 1e-08                 yes
                   warm_start_bound_frac = 1e-20                 yes
                   warm_start_bound_push = 1e-20                 yes
                   warm_start_init_point = yes                   yes
              warm_start_mult_bound_push = 1e-20                 yes
                warm_start_mult_init_max = 1e+40                 yes
             warm_start_slack_bound_frac = 1e-20                 yes
             warm_start_slack_bound_push = 1e-20                 yes

******************************************************************************
This program contains Ipopt, a library for large-scale nonlinear optimization.
 Ipopt is released as open source code under the Eclipse Public License (EPL).
         For more information visit http://projects.coin-or.org/Ipopt
******************************************************************************

This is Ipopt version 3.12.10, running with linear solver ma97.

Number of nonzeros in equality constraint Jacobian...:   123443
Number of nonzeros in inequality constraint Jacobian.:      213
Number of nonzeros in Lagrangian Hessian.............:    49069

Total number of variables............................:    31591
                     variables with only lower bounds:    12912
                variables with lower and upper bounds:    15130
                     variables with only upper bounds:        0
Total number of equality constraints.................:    31483
Total number of inequality constraints...............:       25
        inequality constraints with only lower bounds:        4
   inequality constraints with lower and upper bounds:        0
        inequality constraints with only upper bounds:       21

iter    objective    inf_pr   inf_du lg(mu)  ||d||  lg(rg) alpha_du alpha_pr  ls
   0 -1.9725233e+00 4.04e-03 1.02e+00  -6.0 0.00e+00    -  0.00e+00 0.00e+00   0
   1 -1.9719191e+00 1.55e-02 1.02e+00  -6.0 3.40e+05    -  9.38e-05 5.62e-05h  5
   2 -1.9719559e+00 1.55e-02 4.99e+01  -6.0 8.54e+02    -  2.19e-01 1.18e-03h  1
   3 -1.9848369e+00 3.79e-01 2.13e+02  -6.0 8.51e+02    -  1.56e-01 4.14e-01f  1
   4 -1.9893297e+00 5.44e-01 2.11e+02  -6.0 6.92e+02    -  2.84e-01 3.64e-01f  1
   5 -1.9926082e+00 7.52e-01 1.76e+02  -6.0 5.94e+02    -  7.86e-01 6.64e-01h  1
   6 -1.9927336e+00 6.21e-01 1.03e+02  -6.0 9.13e+02    -  7.40e-01 4.97e-01H  1
   7 -1.9921065e+00 2.18e-04 1.69e+06  -6.0 5.55e+00  -4.0 1.32e-01 1.00e+00h  1
   8 -1.9921155e+00 2.15e-04 1.91e+06  -6.0 4.56e-01  -4.5 1.00e+00 1.32e-02h  1
   9 -1.9921473e+00 8.40e-05 2.33e+01  -6.0 1.41e+00  -5.0 1.00e+00 1.00e+00f  1
iter    objective    inf_pr   inf_du lg(mu)  ||d||  lg(rg) alpha_du alpha_pr  ls
  10 -1.9922031e+00 1.33e-04 1.30e+01  -6.0 3.20e+00  -5.4 1.00e+00 4.45e-01h  1
  11 -1.9922297e+00 5.69e-04 9.86e-03  -6.0 3.25e+00  -5.9 1.00e+00 1.00e+00f  1
  12 -1.9922928e+00 1.65e-03 8.09e-03  -6.0 9.69e+00  -6.4 1.00e+00 1.00e+00h  1
  13 -1.9924583e+00 1.48e-02 3.99e-02  -6.0 2.90e+01  -6.9 1.00e+00 1.00e+00h  1
  14 -1.9930383e+00 1.49e-01 3.29e-01  -6.0 9.21e+01  -7.3 1.00e+00 1.00e+00h  1
  15 -1.9933732e+00 1.67e-01 1.01e+02  -6.0 5.54e+02  -7.8 6.59e-01 7.39e-02h  1
  16 -1.9934951e+00 3.63e-03 7.22e+01  -6.0 1.46e+01  -6.5 1.02e-01 1.00e+00h  1
  17 -1.9936096e+00 3.73e-03 3.03e+01  -6.0 9.96e+00  -6.1 5.69e-01 6.80e-01h  1
  18 -1.9941791e+00 1.74e-01 2.80e+01  -6.0 4.57e+03    -  9.70e-04 2.17e-02f  1
  19 -1.9941814e+00 1.73e-01 2.79e+01  -6.0 2.82e+01  -6.5 1.89e-02 3.65e-03h  1
iter    objective    inf_pr   inf_du lg(mu)  ||d||  lg(rg) alpha_du alpha_pr  ls
  20 -1.9941727e+00 1.73e-01 2.56e+01  -6.0 2.00e+05    -  3.85e-04 8.22e-06h 11
  21 -1.9942266e+00 1.74e-01 4.17e+01  -6.0 3.28e+03    -  3.51e-01 2.78e-03h  1
  22 -1.9941858e+00 1.74e-01 2.58e+01  -6.0 4.67e+03  -6.1 2.39e-03 5.84e-04h  7
  23 -1.9959470e+00 1.62e+00 1.24e+02  -6.0 2.83e+03    -  1.00e+00 1.03e-01h  1
  24 -2.0054662e+00 5.54e+01 2.14e+01  -6.0 2.58e+03    -  9.11e-01 6.90e-01h  1
  25 -2.0046967e+00 1.31e+01 1.71e+05  -6.0 9.12e+02    -  1.28e-01 9.55e-01h  1
  26 -2.0041468e+00 1.01e+01 1.02e+05  -6.0 9.20e+02    -  6.46e-02 3.49e-01h  1
  27 -2.0069824e+00 6.71e+01 7.03e+03  -6.0 2.17e+03    -  8.89e-01 9.56e-01h  1
  28 -2.0069907e+00 6.08e+01 1.12e+05  -6.0 1.95e+03    -  6.04e-01 1.03e-01h  1
  29 -2.0065946e+00 5.50e+01 1.50e+04  -6.0 1.84e+03    -  3.34e-01 1.04e-01h  1
iter    objective    inf_pr   inf_du lg(mu)  ||d||  lg(rg) alpha_du alpha_pr  ls
  30 -2.0050544e+00 6.88e+00 3.61e+02  -6.0 6.46e+02    -  3.74e-01 1.00e+00h  1
  31 -2.0048003e+00 6.85e-01 4.73e+01  -6.0 1.71e+02    -  3.23e-01 1.00e+00h  1
  32 -2.0047820e+00 1.12e-02 9.19e-03  -6.0 2.29e+01    -  1.00e+00 1.00e+00h  1
  33 -2.0047817e+00 2.04e-05 7.09e-06  -6.0 8.81e-01    -  1.00e+00 1.00e+00h  1
  34 -2.0047817e+00 2.93e-10 1.75e-11  -6.0 1.57e-03    -  1.00e+00 1.00e+00h  1
  35 -2.0051549e+00 2.14e-02 8.32e+01  -7.5 2.07e+02    -  9.58e-01 6.69e-01f  1
  36 -2.0051610e+00 1.32e-02 4.81e+01  -7.5 1.30e+02    -  1.00e+00 4.95e-01h  1
  37 -2.0051569e+00 2.93e-03 1.59e+00  -7.5 7.71e+01    -  1.00e+00 1.00e+00h  1
  38 -2.0051507e+00 8.94e-05 5.46e-04  -7.5 4.62e+00    -  1.00e+00 1.00e+00h  1
  39 -2.0051506e+00 1.51e-08 1.24e-07  -7.5 7.90e-02    -  1.00e+00 1.00e+00h  1
iter    objective    inf_pr   inf_du lg(mu)  ||d||  lg(rg) alpha_du alpha_pr  ls
  40 -2.0051526e+00 6.20e-05 1.11e+00  -9.0 1.38e+01    -  9.51e-01 8.30e-01h  1
  41 -2.0051528e+00 3.16e-06 1.71e-03  -9.0 2.68e+00    -  1.00e+00 1.00e+00f  1
  42 -2.0051528e+00 2.93e-10 5.40e-09  -9.0 9.15e-03    -  1.00e+00 1.00e+00h  1

Number of Iterations....: 42

                                   (scaled)                 (unscaled)
Objective...............:  -1.5665256162498979e+00   -2.0051527887998692e+00
Dual infeasibility......:   5.3972537550350808e-09    6.9084848064449037e-09
Constraint violation....:   2.9341527124637778e-10    2.9341527124637778e-10
Complementarity.........:   1.1093224420040111e-09    1.4199327257651341e-09
Overall NLP error.......:   5.3972537550350808e-09    6.9084848064449037e-09


Number of objective function evaluations             = 69
Number of objective gradient evaluations             = 43
Number of equality constraint evaluations            = 69
Number of inequality constraint evaluations          = 69
Number of equality constraint Jacobian evaluations   = 43
Number of inequality constraint Jacobian evaluations = 43
Number of Lagrangian Hessian evaluations             = 42
Total CPU secs in IPOPT (w/o function evaluations)   =     72.770
Total CPU secs in NLP function evaluations           =      1.217

EXIT: Optimal Solution Found.
